LengthSchedulingHorizon=1950;
nAttributes=5;
SetupCosts=[[0, 0, 0, 0, 0], [2, 3, 3, 3, 3], [3, 2, 3, 3, 3], [3, 3, 0, 3, 3], [3, 3, 3, 1, 3], [3, 3, 3, 3, 1]];
SetupTimes=[[0, 0, 0, 0, 0], [1, 3, 3, 3, 3], [3, 1, 3, 3, 3], [3, 3, 2, 3, 3], [3, 3, 3, 2, 3], [3, 3, 3, 3, 0]];
nMachines=5;
MinCap=[0, 0, 0, 0, 0];
MaxCap=[20, 20, 20, 20, 20];

initState=[2, 5, 1, 1, 3];
nShifts=5;
ShiftStartTimes = [[0, 0, 895, 1095, 1745], [1213, 1276, 1377, 1630, 1795], [0, 1026, 1031, 1550, 1586], [0, 0, 0, 0, 918], [0, 0, 0, 0, 21]];
ShiftEndTimes = [[0, 0, 978, 1295, 1922], [1231, 1369, 1486, 1683, 1857], [0, 1030, 1220, 1560, 1737], [0, 0, 0, 0, 1887], [0, 0, 0, 0, 1188]];
nJobs=50;
EligibleMachines = [{1, 5}, {1, 4}, {1, 3, 4}, {1}, {3, 5}, {3}, {3, 4}, {1, 5}, {3}, {5}, {2, 4}, {3, 4}, {2, 5}, {1, 3}, {2}, {1, 2}, {4}, {1}, {1}, {5}, {1, 5}, {5}, {2}, {1, 4, 5}, {1, 4}, {5}, {1, 2}, {1}, {1, 3}, {4}, {1, 3, 4, 5}, {1, 3}, {1, 5}, {3, 4}, {4}, {2}, {1, 4}, {1, 4, 5}, {1, 2}, {1, 5}, {5}, {2, 4, 5}, {2, 3}, {2, 3}, {2, 3}, {2, 5}, {2, 5}, {5}, {2}, {2, 4}];
EarliestStart=[132, 73, 113, 46, 103, 142, 36, 130, 40, 70, 0, 135, 126, 64, 3, 53, 92, 134, 64, 31, 95, 34, 8, 126, 23, 99, 56, 17, 131, 142, 137, 26, 76, 122, 91, 73, 98, 131, 48, 143, 137, 149, 0, 100, 150, 4, 32, 120, 150, 78];
LatestEnd=[151, 84, 126, 50, 114, 161, 43, 141, 54, 76, 3, 137, 143, 76, 10, 60, 103, 144, 69, 32, 109, 44, 9, 137, 29, 109, 66, 18, 138, 154, 151, 42, 81, 127, 104, 83, 100, 134, 59, 150, 149, 151, 11, 112, 153, 19, 37, 135, 161, 80];
MinTime=[10, 8, 7, 4, 8, 10, 4, 6, 8, 4, 2, 2, 9, 10, 5, 6, 7, 6, 3, 1, 10, 8, 1, 7, 4, 6, 7, 1, 6, 10, 8, 9, 4, 5, 9, 8, 2, 2, 6, 4, 10, 2, 9, 9, 2, 10, 3, 9, 7, 2];
MaxTime=[10, 10, 10, 6, 10, 10, 6, 10, 8, 4, 4, 6, 10, 10, 7, 8, 7, 8, 4, 7, 10, 9, 4, 9, 6, 7, 8, 6, 7, 10, 10, 9, 7, 6, 9, 9, 8, 7, 9, 7, 10, 2, 9, 9, 10, 10, 3, 9, 8, 7];
JobSize=[10, 1, 9, 6, 6, 12, 7, 17, 9, 20, 15, 10, 14, 6, 10, 18, 2, 7, 3, 3, 10, 4, 7, 3, 6, 15, 5, 17, 5, 14, 17, 3, 9, 18, 16, 4, 5, 14, 17, 19, 17, 4, 7, 4, 20, 17, 13, 17, 1, 11];
Attribute=[2, 4, 5, 4, 4, 2, 1, 5, 3, 2, 4, 4, 3, 3, 1, 4, 2, 4, 3, 4, 3, 4, 1, 4, 3, 2, 5, 3, 2, 2, 2, 3, 5, 4, 2, 5, 3, 5, 5, 5, 3, 3, 1, 2, 5, 5, 4, 1, 4, 4];

upper_bound_integer_objective=31500;
mult_factor_total_runtime=4;
mult_factor_finished_toolate=600;
mult_factor_total_setuptimes=0;
mult_factor_total_setupcosts=2;
running_time_bound=300;
min_duration=1;
max_duration=10;
max_setup_time=3;
max_setup_cost=3;
